
  22   10
  10   10   10   10   10   10   10   10   10   10

   0   0   0   0   0   0   0   0   0   0   0   5 2 3 4 6 7 
   2   0   0   0   0   0   0   0  10   0   0   2 8 5 
   3   0   0  10   0   0   0   0   0   0   0   4 12 11 10 8 
   8   0   0   0  10   0   0   0   0   0   0   1 5 
   6   0   0   0   0  10   0   0   0   0   0   4 17 12 11 10 
   4   0   0   0   0   0   0   0  10   0   0   3 17 11 10 
   9   0   0  10   0   0   0   0   0   0   0   3 15 10 9 
   8   0   0  10   0   0   0   0   0   0   0   4 17 16 15 13 
   1   0   0   0  10   0   0   0   0   0   0   3 17 16 13 
   7   0   0   0   0   0   0  10   0   0   0   3 20 16 13 
   9  10   0   0   0   0   0   0   0   0   0   4 21 20 18 15 
   2   0  10   0   0   0   0   0   0   0   0   3 20 18 15 
   5   0   0   0   0   0   0  10   0   0   0   2 19 14 
   3   0   0   0   0   0   0   0   0   0  10   1 18 
   2   0   0   0   0   0   0  10   0   0   0   1 19 
   9   0  10   0   0   0   0   0   0   0   0   1 21 
   4   0   0   0   0  10   0   0   0   0   0   1 20 
   9   0   0   0   0  10   0   0   0   0   0   1 22
   8   0   0   0   0   0   0   0  10   0   0   1 22
   9   0  10   0   0   0   0   0   0   0   0   1 22
   9   0   0   0   0   0   0  10   0   0   0   1 22
   0   0   0   0   0   0   0   0   0   0   0   0 
